(set-info :smt-lib-version 2.6)
(set-logic AUFBVFPDTNIRA)
(set-info :source |
Generated by: AdaCore
Generated on: 2020-03-06
Generator: SPARK
Application: Program verification for Ada
Target solver: Z3
|)
(set-info :license "https://creativecommons.org/licenses/by/4.0/")
(set-info :category "industrial")
(set-info :status unknown)
;;; generated by SMT-LIB2 driver
;;; SMT-LIB2 driver: bit-vectors, common part
;;; SMT-LIB2: integer arithmetic
(declare-sort string 0)

(declare-datatypes () ((tuple0 (Tuple0))))
(declare-sort us_private 0)

(declare-fun private__bool_eq (us_private us_private) Bool)

(declare-const us_null_ext__ us_private)

(declare-sort us_type_of_heap 0)

(declare-datatypes ()
((us_type_of_heap__ref
 (us_type_of_heap__refqtmk (us_type_of_heap__content us_type_of_heap)))))
(declare-sort us_image 0)

(declare-datatypes () ((int__ref (int__refqtmk (int__content Int)))))
(declare-datatypes () ((bool__ref (bool__refqtmk (bool__content Bool)))))
(declare-datatypes ()
((us_fixed__ref (us_fixed__refqtmk (us_fixed__content Int)))))
(declare-datatypes () ((real__ref (real__refqtmk (real__content Real)))))
(declare-datatypes ()
((us_private__ref (us_private__refqtmk (us_private__content us_private)))))
(define-fun int__ref___projection ((a int__ref)) Int (int__content a))

(define-fun us_fixed__ref___projection ((a us_fixed__ref)) Int (us_fixed__content
                                                               a))

(define-fun bool__ref___projection ((a bool__ref)) Bool (bool__content a))

(define-fun real__ref___projection ((a real__ref)) Real (real__content a))

(define-fun us_private__ref___projection ((a us_private__ref)) us_private 
  (us_private__content a))

(declare-fun nth ((_ BitVec 8) Int) Bool)

(declare-fun lsr ((_ BitVec 8) Int) (_ BitVec 8))

(declare-fun asr ((_ BitVec 8) Int) (_ BitVec 8))

(declare-fun lsl ((_ BitVec 8) Int) (_ BitVec 8))

(define-fun abs1 ((x Int)) Int (ite (<= 0 x) x (- x)))

;; Abs_le
  (assert
  (forall ((x Int) (y Int)) (= (<= (abs1 x) y) (and (<= (- y) x) (<= x y)))))

;; Abs_pos
  (assert (forall ((x Int)) (<= 0 (abs1 x))))

(declare-fun rotate_right1 ((_ BitVec 8) Int) (_ BitVec 8))

(declare-fun rotate_left1 ((_ BitVec 8) Int) (_ BitVec 8))

(declare-fun pow2 (Int) Int)

(define-fun to_int1 ((x (_ BitVec 8))) Int (ite (bvsge x (_ bv0 8))
                                           (bv2int x) (- (- 256 (bv2int x)))))

(define-fun uint_in_range ((i Int)) Bool (and (<= 0 i) (<= i 255)))

(declare-fun nth_bv ((_ BitVec 8) (_ BitVec 8)) Bool)

(declare-fun eq_sub_bv ((_ BitVec 8) (_ BitVec 8) (_ BitVec 8)
  (_ BitVec 8)) Bool)

(define-fun eq_sub ((a (_ BitVec 8)) (b (_ BitVec 8)) (i Int)
  (n Int)) Bool (forall ((j Int))
                (=> (and (<= i j) (< j (+ i n))) (= (nth a j) (nth b j)))))

(declare-datatypes () ((t__ref (t__refqtmk (t__content (_ BitVec 8))))))
(declare-fun power ((_ BitVec 8) Int) (_ BitVec 8))

(define-fun bv_min ((x (_ BitVec 8))
  (y (_ BitVec 8))) (_ BitVec 8) (ite (bvule x y) x y))

(define-fun bv_max ((x (_ BitVec 8))
  (y (_ BitVec 8))) (_ BitVec 8) (ite (bvule x y) y x))

(define-fun min ((x Int) (y Int)) Int (ite (<= x y) x y))

(define-fun max ((x Int) (y Int)) Int (ite (<= x y) y x))

;; Min_r
  (assert (forall ((x Int) (y Int)) (=> (<= y x) (= (min x y) y))))

;; Max_l
  (assert (forall ((x Int) (y Int)) (=> (<= y x) (= (max x y) x))))

;; Min_comm
  (assert (forall ((x Int) (y Int)) (= (min x y) (min y x))))

;; Max_comm
  (assert (forall ((x Int) (y Int)) (= (max x y) (max y x))))

;; Min_assoc
  (assert
  (forall ((x Int) (y Int) (z Int)) (= (min (min x y) z) (min x (min y z)))))

;; Max_assoc
  (assert
  (forall ((x Int) (y Int) (z Int)) (= (max (max x y) z) (max x (max y z)))))

(declare-fun nth1 ((_ BitVec 16) Int) Bool)

(declare-fun lsr1 ((_ BitVec 16) Int) (_ BitVec 16))

(declare-fun asr1 ((_ BitVec 16) Int) (_ BitVec 16))

(declare-fun lsl1 ((_ BitVec 16) Int) (_ BitVec 16))

(declare-fun rotate_right2 ((_ BitVec 16) Int) (_ BitVec 16))

(declare-fun rotate_left2 ((_ BitVec 16) Int) (_ BitVec 16))

(define-fun to_int2 ((x (_ BitVec 16))) Int (ite (bvsge x (_ bv0 16))
                                            (bv2int x)
                                            (- (- 65536 (bv2int x)))))

(define-fun uint_in_range1 ((i Int)) Bool (and (<= 0 i) (<= i 65535)))

(declare-fun nth_bv1 ((_ BitVec 16) (_ BitVec 16)) Bool)

(declare-fun eq_sub_bv1 ((_ BitVec 16) (_ BitVec 16) (_ BitVec 16)
  (_ BitVec 16)) Bool)

(define-fun eq_sub1 ((a (_ BitVec 16)) (b (_ BitVec 16)) (i Int)
  (n Int)) Bool (forall ((j Int))
                (=> (and (<= i j) (< j (+ i n))) (= (nth1 a j) (nth1 b j)))))

(declare-datatypes () ((t__ref1 (t__refqtmk1 (t__content1 (_ BitVec 16))))))
(declare-fun power1 ((_ BitVec 16) Int) (_ BitVec 16))

(define-fun bv_min1 ((x (_ BitVec 16))
  (y (_ BitVec 16))) (_ BitVec 16) (ite (bvule x y) x y))

(define-fun bv_max1 ((x (_ BitVec 16))
  (y (_ BitVec 16))) (_ BitVec 16) (ite (bvule x y) y x))

(declare-sort natural 0)

(declare-fun naturalqtint (natural) Int)

;; natural'axiom
  (assert
  (forall ((i natural))
  (and (<= 0 (naturalqtint i)) (<= (naturalqtint i) 2147483647))))

(define-fun in_range ((x Int)) Bool (and (<= 0 x) (<= x 2147483647)))

(declare-fun attr__ATTRIBUTE_IMAGE (Int) us_image)

(declare-fun attr__ATTRIBUTE_VALUE__pre_check (us_image) Bool)

(declare-fun attr__ATTRIBUTE_VALUE (us_image) Int)

(declare-fun user_eq (natural natural) Bool)

(declare-const dummy natural)

(declare-datatypes ()
((natural__ref (natural__refqtmk (natural__content natural)))))
(define-fun natural__ref_natural__content__projection ((a natural__ref)) natural 
  (natural__content a))

(define-fun dynamic_invariant ((temp___expr_39 Int) (temp___is_init_35 Bool)
  (temp___skip_constant_36 Bool) (temp___do_toplevel_37 Bool)
  (temp___do_typ_inv_38 Bool)) Bool (=>
                                    (or (= temp___is_init_35 true)
                                    (<= 0 2147483647)) (in_range
                                    temp___expr_39)))

(declare-fun shift_right ((_ BitVec 16) Int) (_ BitVec 16))

(declare-fun shift_right__function_guard ((_ BitVec 16) (_ BitVec 16)
  Int) Bool)

(declare-sort double_octet 0)

(declare-const attr__ATTRIBUTE_MODULUS (_ BitVec 16))

(declare-fun attr__ATTRIBUTE_IMAGE1 ((_ BitVec 16)) us_image)

(declare-fun attr__ATTRIBUTE_VALUE__pre_check1 (us_image) Bool)

(declare-fun attr__ATTRIBUTE_VALUE1 (us_image) (_ BitVec 16))

(declare-fun user_eq1 (double_octet double_octet) Bool)

(declare-const dummy1 double_octet)

(declare-datatypes ()
((double_octet__ref
 (double_octet__refqtmk (double_octet__content double_octet)))))
(define-fun double_octet__ref_double_octet__content__projection ((a double_octet__ref)) double_octet 
  (double_octet__content a))

(define-fun dynamic_invariant1 ((temp___expr_167 (_ BitVec 16))
  (temp___is_init_163 Bool) (temp___skip_constant_164 Bool)
  (temp___do_toplevel_165 Bool) (temp___do_typ_inv_166 Bool)) Bool true)

;; shift_right__post_axiom
  (assert
  (forall ((value (_ BitVec 16)))
  (forall ((count Int))
  (! (=>
     (and (dynamic_invariant1 value true true true true) (dynamic_invariant
     count true true true true))
     (let ((result (shift_right value count)))
     (=> (shift_right__function_guard result value count)
     (and
     (= result (bvudiv value (ite (< count 65536)
                             (bvshl #x0001 ((_ int2bv 16) count)) #x0000)))
     (dynamic_invariant1 result true false true true))))) :pattern ((shift_right
                                                                    value
                                                                    count)) ))))

(declare-const value (_ BitVec 16))

(declare-const attr__ATTRIBUTE_ADDRESS Int)

(declare-sort octet 0)

(declare-const attr__ATTRIBUTE_MODULUS1 (_ BitVec 8))

(declare-fun attr__ATTRIBUTE_IMAGE2 ((_ BitVec 8)) us_image)

(declare-fun attr__ATTRIBUTE_VALUE__pre_check2 (us_image) Bool)

(declare-fun attr__ATTRIBUTE_VALUE2 (us_image) (_ BitVec 8))

(declare-fun user_eq2 (octet octet) Bool)

(declare-const dummy2 octet)

(declare-datatypes () ((octet__ref (octet__refqtmk (octet__content octet)))))
(define-fun octet__ref_octet__content__projection ((a octet__ref)) octet 
  (octet__content a))

(define-fun dynamic_invariant2 ((temp___expr_160 (_ BitVec 8))
  (temp___is_init_156 Bool) (temp___skip_constant_157 Bool)
  (temp___do_toplevel_158 Bool) (temp___do_typ_inv_159 Bool)) Bool true)

;; Assume
  (assert (dynamic_invariant1 value true false true true))

(define-fun o () (_ BitVec 16) value)

(define-fun o1 () (_ BitVec 16) (shift_right o 8))

;; H
  (assert (shift_right__function_guard o1 o 8))

;; H
  (assert (dynamic_invariant1 o1 true false true true))

;; H
  (assert
  (= o1 (bvudiv o (ite (< 8 65536) (bvshl #x0001 ((_ int2bv 16) 8)) #x0000))))

(assert
;; defqtvc
 ;; File "example.ads", line 15, characters 0-0
  (not (bvule ((_ zero_extend 8) #x00) o1)))
(check-sat)
